UO2F2 Sphere Benchmark - 20 wt% H/X=100 Vacuum Boundary
c
c Canonical single-case MCNP deck matching:
c   studies/ornl-tm-12292-uo2f2-20pct-sphere/configs/02_hx_validation_sweep.yaml
c   case_6 (H/X = 100, exact H/U = 20.204171182632887)
c
c Fuel density + isotopics were derived from the shared material path with:
c   python scripts/get_mcnp_density.py uo2f2 --no-default-sweeps -e 20.0 --h-to-u 20.204171182632887
c
c Cell Cards
c
1 1 -2.23908638 -1 imp:n=1 $ homogeneous UO2F2-H2O fuel sphere
2 2 -1.00000000 1 -2 imp:n=1 $ water reflector
99 0 2 imp:n=0 $ exterior vacuum

c Surface Cards
c
1 so 13.88   $ fuel radius [cm]
2 so 113.88  $ outer reflector radius [cm]

c Data Cards
c
mode n
kcode 6000 1.0 40 180
ksrc 0 0 0
c Material 1: UO2F2-H2O, 20 wt% U-235, H/X=100 (exact H/U = 20.204171182632887)
m1 1001.80c 5.72254690e-01
     8016.80c 3.42774530e-01
     9019.80c 5.66471800e-02
     92235.80c 5.72255000e-03
     92238.80c 2.26010400e-02
mt1 lwtr.01t
c Material 2: light water reflector at 1.0 g/cc
m2 1001.80c 6.66666670e-01
     8016.80c 3.33333330e-01
mt2 lwtr.01t
print
