Piping Model- Infinite Lattice
c
c Cell Cards
c
1 2 -2.70 2 -1 16 -15 imp:n=1
3 3 -1.0 -7 8 1 -17 18 13 16 -15 imp:n=1
4 5 -6.37 11 -2 16 -15 imp:n=1
5 1 -0.0127 -11 16 -15 imp:n=1
6 5 -6.37 14 -12 -17 18 imp:n=1
7 1 -0.0127 -14 -17 18 imp:n=1
8 2 -2.70 12 -13 -17 18 imp:n=1

c Surface Cards
c
1 cz 5.715
2 cz 5.4102
*7 py 20.145
*8 py -8.715
11 cz 4.4102
12 c/x 11.43 0 5.4102
13 c/x 11.43 0 5.715
14 c/x 11.43 0 4.4102
*15 pz 8.715
*16 pz -8.715
*17 px 8.815
*18 px -8.715

c Data Cards
c
c Source Term
c
mode n
kcode 4800 1.0 50 200
ksrc 0 0 0

c Material Cards
c
m1 92235.80c 5.06e-05
     92238.80c 3.32e-05
     9019.80c 1.5e-04
mt1 lwtr.01t
c
m2 13027.80c 0.06022
c
m3 1001.80c 0.067
     8016.80c 0.033
mt3 lwtr.01t
c
m4 7014.80c 3.22e-05
     8016.80c 1.02e-05
     18040.80c 2.284e-07
     1001.80c 1.15e-06
c
m5 92235.80c 0.00252
     92238.80c 0.00996
     8016.80c 0.02496
     9019.80c 0.02496
print
